c SAT Generator for power-law distributed variable frequencies
c -g u -v 20 -c 91 -k 3 -p 2.750000 -b 3.200000 -f /home/schmidt/Devel/ni-kop-sat/data/ensemble/ruf20-91/ruf20-91-867 -u 1 -U 1 -s 2907437383
p cnf 20 91
-4 11 -20 0
-1 -4 -6 0
-3 -4 -20 0
-3 10 19 0
-2 3 17 0
-7 -9 -10 0
1 -5 18 0
-1 -3 -10 0
15 -16 18 0
-10 -15 20 0
6 -11 17 0
9 -13 16 0
4 5 -15 0
-1 -5 -12 0
2 12 18 0
-3 -10 -12 0
9 -13 15 0
-8 -12 17 0
13 17 -20 0
-8 -13 -20 0
1 -2 14 0
4 5 13 0
1 -4 -16 0
13 -18 -19 0
9 -13 -16 0
6 -16 18 0
12 -14 18 0
5 -16 20 0
-7 -15 -20 0
9 10 -19 0
5 10 -19 0
-16 -18 20 0
2 11 16 0
-2 5 19 0
-14 -15 -17 0
-8 15 16 0
-8 15 17 0
-10 -16 17 0
3 9 -10 0
-3 7 -10 0
-6 -15 19 0
-3 -10 -15 0
8 11 -17 0
4 -8 -16 0
2 12 -17 0
3 16 -18 0
-1 15 -19 0
1 9 -19 0
7 11 -17 0
-3 5 -15 0
3 -5 -12 0
-2 12 17 0
9 15 -17 0
-11 -14 17 0
2 3 -12 0
8 15 18 0
-3 -11 12 0
-8 -16 17 0
-5 -10 -20 0
6 8 -12 0
-2 13 19 0
1 -2 9 0
-2 -18 20 0
-2 10 19 0
-1 -3 5 0
4 -5 -8 0
13 16 -17 0
7 -12 15 0
6 15 17 0
1 -9 20 0
-4 10 -11 0
-3 7 20 0
2 4 -5 0
-2 -9 20 0
11 -14 -17 0
-16 17 -18 0
-1 -4 7 0
7 -15 17 0
-5 -14 -16 0
-1 5 -12 0
6 11 17 0
2 -4 12 0
-3 12 -17 0
-1 -4 -5 0
3 -9 14 0
2 -11 20 0
10 13 14 0
-2 -9 11 0
-5 -12 -14 0
10 -16 -20 0
2 -6 -14 0
